43 122
9 21 22 28 39
3 4 34 39
41
1 4 12 19 27 29 32
1 3 5 14 16 17 25 31
4 13 18 30 36 39
28 31 38
14 18 25 32 36 42
10 14 19 27 30 34 37 38
0 17 26 28 30
8 16 20 31 32 33 35 36 40
17 34 37 40
3 22 30 31
5 22 30 31 42
4 7 8 19 20 29 39 40
19
4 10 23 28 29 35
4 9 11 29
5 7 26 33 41 42
3 8 14 15 23 29
10 14 23 27 39
0 33 38 41
0 12 13 25 32 36
16 19 20 24 30 42
23 27 36 39 41 42
4 7 22 36 40
9 18 35
3 8 20 24 28 30 38
0 6 9 16 27 36 38 39
3 14 16 17 19 38 40
5 8 9 12 13 23 27 37
4 6 10 12 13
3 7 10 22
10 18 21 36 40
1 8 11 37
10 16 26 38 39
5 7 10 22 24 25 28 33 39
8 11 30 34
6 8 21 27 28 29 35
0 1 5 14 20 24 28 35 36 40 42
10 11 14 25 29 33 39 42
2 18 21 24
7 13 18 23 24 39 40
